NAME: tsp45_1
COMMENT: 45-tsp problem (Padberg/Rinaldi)
TYPE: TSP
DIMENSION: 45
EDGE_WEIGHT_TYPE : EUC_2D
NODE_COORD_SECTION
1 36 23
2 34 37
3 18 27
4 28 33
5 26 7
6 39 34
7 15 17
8 10 36
9 21 37
10 33 4
11 3 24
12 40 6
13 16 7
14 8 30
15 38 19
16 6 3
17 5 15
18 25 36
19 1 14
20 30 6
21 9 13
22 0 10
23 6 32
24 19 22
25 20 33
26 17 35
27 23 37
28 7 19
29 15 11
30 14 6
31 12 30
32 4 1
33 11 23
34 28 31
35 36 26
36 31 3
37 29 31
38 13 17
39 10 39
40 39 8
41 3 12
42 34 32
43 17 25
44 34 21
45 25 30
